decision_x1=[0,2];
decision_x2=[0,2];
decision_x3=[0,2];
decision_x4=[0,2];
decision_x5=[0,2];
decision_x6=[0,2];
decision_x7=[0,2];
decision_x8=[0,2];
decision_x9=[0,2];
decision_x10=[0,2];
decision_x11=[0,2];
decision_x12=[0,2];
random_y1=[0,2];
random_y2=[0,2];
random_y3=[0,2];
random_y4=[0,2];
random_y5=[0,2];
random_y6=[0,2];
random_y7=[0,2];
random_y8=[0,2];
random_y9=[0,2];
random_y10=[0,2];
random_y11=[0,2];
random_y12=[0,2];
constraint_x3_x1=[
0,0,9.3|
0,1,2.9|
0,2,4.3|
1,0,6.3|
1,1,3.8|
1,2,1.3|
2,0,2|
2,1,5.2|
2,2,5.9|
];
constraint_x3_x2=[
0,0,0.18|
0,1,8.7|
0,2,5.2|
1,0,9.8|
1,1,8.4|
1,2,7|
2,0,7.5|
2,1,3.7|
2,2,4.3|
];
constraint_x4_x1=[
0,0,2.2|
0,1,6.9|
0,2,7.2|
1,0,9.9|
1,1,6.7|
1,2,0.62|
2,0,8.7|
2,1,5.3|
2,2,4.1|
];
constraint_x4_x2=[
0,0,4.6|
0,1,8.9|
0,2,3.2|
1,0,2.6|
1,1,3.3|
1,2,6.5|
2,0,0.22|
2,1,2.6|
2,2,8.6|
];
constraint_x5_x1=[
0,0,2|
0,1,7.2|
0,2,1.5|
1,0,0.098|
1,1,6.4|
1,2,0.86|
2,0,3.2|
2,1,3.1|
2,2,7.7|
];
constraint_x5_x2=[
0,0,9.8|
0,1,9.3|
0,2,0.24|
1,0,3.1|
1,1,3.5|
1,2,8.1|
2,0,5.9|
2,1,1.3|
2,2,3.3|
];
constraint_x5_x3=[
0,0,3|
0,1,7.3|
0,2,4|
1,0,1.4|
1,1,0.061|
1,2,9.3|
2,0,1.1|
2,1,3.4|
2,2,8|
];
constraint_x6_x3=[
0,0,7.4|
0,1,4.2|
0,2,1.9|
1,0,2.3|
1,1,4.1|
1,2,7.8|
2,0,5.8|
2,1,4.4|
2,2,5.7|
];
constraint_x6_x5=[
0,0,3.6|
0,1,6.4|
0,2,4.4|
1,0,6.2|
1,1,2.3|
1,2,1|
2,0,1.6|
2,1,7.5|
2,2,8.7|
];
constraint_x7_x1=[
0,0,1.8|
0,1,7.3|
0,2,7.6|
1,0,1.2|
1,1,4.5|
1,2,3.1|
2,0,7.7|
2,1,8.1|
2,2,7.3|
];
constraint_x7_x2=[
0,0,6.4|
0,1,8.8|
0,2,4|
1,0,7|
1,1,8.9|
1,2,5.6|
2,0,5.7|
2,1,5.7|
2,2,1.4|
];
constraint_x7_x4=[
0,0,4.4|
0,1,0.00043|
0,2,9.6|
1,0,4.4|
1,1,2.3|
1,2,7.4|
2,0,2.6|
2,1,3.7|
2,2,6.9|
];
constraint_x7_x5=[
0,0,10|
0,1,8.6|
0,2,2.2|
1,0,3.8|
1,1,9.4|
1,2,4|
2,0,1|
2,1,5.3|
2,2,1.4|
];
constraint_x7_x6=[
0,0,4.8|
0,1,0.53|
0,2,9.1|
1,0,7.1|
1,1,9.9|
1,2,7.2|
2,0,0.84|
2,1,5.4|
2,2,8.5|
];
constraint_x8_x2=[
0,0,8.1|
0,1,3.5|
0,2,0.49|
1,0,7.7|
1,1,9.9|
1,2,9.2|
2,0,0.36|
2,1,5.7|
2,2,2.4|
];
constraint_x8_x3=[
0,0,4.5|
0,1,6.5|
0,2,8.8|
1,0,5.7|
1,1,3.2|
1,2,3.3|
2,0,9.8|
2,1,1.6|
2,2,3|
];
constraint_x8_x4=[
0,0,1.8|
0,1,1.2|
0,2,5.5|
1,0,5.5|
1,1,6|
1,2,6.3|
2,0,1.4|
2,1,2|
2,2,7.2|
];
constraint_x8_x5=[
0,0,1.4|
0,1,6.7|
0,2,3.9|
1,0,1.9|
1,1,8.7|
1,2,2.6|
2,0,2.6|
2,1,5|
2,2,1.3|
];
constraint_x9_x2=[
0,0,8|
0,1,3.5|
0,2,5|
1,0,8.7|
1,1,3.7|
1,2,6.8|
2,0,0.49|
2,1,10|
2,2,4.7|
];
constraint_x9_x3=[
0,0,8.5|
0,1,5|
0,2,2.1|
1,0,10|
1,1,5.2|
1,2,1.6|
2,0,3.4|
2,1,4.8|
2,2,9.8|
];
constraint_x9_x5=[
0,0,0.72|
0,1,9.8|
0,2,0.21|
1,0,7.9|
1,1,9.3|
1,2,3.8|
2,0,5|
2,1,3.6|
2,2,7.8|
];
constraint_x9_x6=[
0,0,5.7|
0,1,8.3|
0,2,6.7|
1,0,8.6|
1,1,8.4|
1,2,6.4|
2,0,3.2|
2,1,2.1|
2,2,3.5|
];
constraint_x9_x7=[
0,0,9.2|
0,1,9.2|
0,2,4.2|
1,0,4.8|
1,1,5.9|
1,2,0.76|
2,0,8.9|
2,1,5.7|
2,2,6.5|
];
constraint_x10_x4=[
0,0,2.5|
0,1,3.7|
0,2,0.96|
1,0,6.4|
1,1,1.6|
1,2,7.3|
2,0,4.8|
2,1,6.6|
2,2,7.2|
];
constraint_x10_x7=[
0,0,9|
0,1,8.1|
0,2,6.8|
1,0,7.3|
1,1,6.5|
1,2,1.6|
2,0,7.4|
2,1,2.2|
2,2,1.3|
];
constraint_x11_x3=[
0,0,6.4|
0,1,3.3|
0,2,0.96|
1,0,4.1|
1,1,1.4|
1,2,3.6|
2,0,5.1|
2,1,3.8|
2,2,0.82|
];
constraint_x11_x4=[
0,0,1.7|
0,1,4.9|
0,2,0.27|
1,0,6.8|
1,1,6.1|
1,2,2.6|
2,0,3|
2,1,8.2|
2,2,2.2|
];
constraint_x11_x5=[
0,0,1.4|
0,1,3.8|
0,2,2.2|
1,0,3.2|
1,1,4.7|
1,2,8.9|
2,0,0.46|
2,1,0.36|
2,2,5.8|
];
constraint_x11_x7=[
0,0,3.1|
0,1,7.9|
0,2,3.7|
1,0,4.6|
1,1,6.9|
1,2,5.4|
2,0,7.4|
2,1,4.7|
2,2,2|
];
constraint_x12_x3=[
0,0,8.9|
0,1,3.7|
0,2,4.3|
1,0,2.2|
1,1,6.8|
1,2,0.22|
2,0,0.13|
2,1,8.2|
2,2,3.4|
];
constraint_x12_x7=[
0,0,9.9|
0,1,8.2|
0,2,0.0074|
1,0,6.4|
1,1,7.2|
1,2,4.5|
2,0,4.3|
2,1,9.9|
2,2,3.5|
];
constraint_x12_x8=[
0,0,5.5|
0,1,6|
0,2,4.3|
1,0,5.8|
1,1,7.3|
1,2,7.1|
2,0,4.4|
2,1,6.5|
2,2,1.2|
];
constraint_x12_x9=[
0,0,4.8|
0,1,1.2|
0,2,3.4|
1,0,7.7|
1,1,1.4|
1,2,4.6|
2,0,6.2|
2,1,1.7|
2,2,8.7|
];
constraint_x1_y1=[
0,0,1.3|
0,1,3.2|
0,2,9.2|
1,0,1.1|
1,1,5.7|
1,2,8.2|
2,0,7.1|
2,1,6.8|
2,2,9.6|
];
constraint_x2_y2=[
0,0,9.9|
0,1,6.2|
0,2,6.6|
1,0,1.3|
1,1,4.6|
1,2,1.9|
2,0,8.6|
2,1,6.3|
2,2,8.8|
];
constraint_x3_y3=[
0,0,1.4|
0,1,3.3|
0,2,8|
1,0,4.2|
1,1,3.2|
1,2,1.8|
2,0,3.2|
2,1,7.1|
2,2,1.2|
];
constraint_x4_y4=[
0,0,2.2|
0,1,9.6|
0,2,3.3|
1,0,8.5|
1,1,2.8|
1,2,3.6|
2,0,8.3|
2,1,5|
2,2,1.8|
];
constraint_x5_y5=[
0,0,7.3|
0,1,8.1|
0,2,6.1|
1,0,0.022|
1,1,9.9|
1,2,7.6|
2,0,5.7|
2,1,6.9|
2,2,1.5|
];
constraint_x6_y6=[
0,0,9.8|
0,1,4.8|
0,2,1.3|
1,0,8.1|
1,1,3|
1,2,5.9|
2,0,0.19|
2,1,4.4|
2,2,1.4|
];
constraint_x7_y7=[
0,0,4.9|
0,1,7.3|
0,2,3.9|
1,0,4.5|
1,1,0.98|
1,2,6.6|
2,0,6.6|
2,1,1.2|
2,2,4.2|
];
constraint_x8_y8=[
0,0,6.7|
0,1,7.9|
0,2,0.8|
1,0,2.2|
1,1,1.7|
1,2,5.1|
2,0,3.2|
2,1,9.8|
2,2,8.1|
];
constraint_x9_y9=[
0,0,2.2|
0,1,7.3|
0,2,5.3|
1,0,4.6|
1,1,4.5|
1,2,8.7|
2,0,7.5|
2,1,3.9|
2,2,9.4|
];
constraint_x10_y10=[
0,0,3.9|
0,1,0.75|
0,2,1.5|
1,0,7.5|
1,1,8.7|
1,2,8.4|
2,0,7.1|
2,1,4.3|
2,2,8.9|
];
constraint_x11_y11=[
0,0,4.8|
0,1,5.3|
0,2,3.3|
1,0,4.2|
1,1,9.2|
1,2,8.8|
2,0,3.4|
2,1,9.6|
2,2,7.4|
];
constraint_x12_y12=[
0,0,6.4|
0,1,0.58|
0,2,9.6|
1,0,4|
1,1,9.1|
1,2,6.9|
2,0,6.9|
2,1,7.3|
2,2,3.4|
];
initial_distribution_y1=[0.093,0.35,0.56];
initial_distribution_y2=[0.049,0.56,0.39];
initial_distribution_y3=[0.14,0.5,0.36];
initial_distribution_y4=[0.43,0.43,0.14];
initial_distribution_y5=[0.31,0.61,0.081];
initial_distribution_y6=[0.21,0.48,0.31];
initial_distribution_y7=[0.28,0.53,0.2];
initial_distribution_y8=[0.62,0.3,0.081];
initial_distribution_y9=[0.56,0.23,0.2];
initial_distribution_y10=[0.15,0.5,0.35];
initial_distribution_y11=[0.39,0.35,0.26];
initial_distribution_y12=[0.071,0.65,0.28];
transition_y1=[
0.42,0.057,0.52|
0.42,0.33,0.25|
0.54,0.2,0.27|
];
transition_y2=[
0.47,0.26,0.27|
0.098,0.49,0.41|
0.067,0.29,0.64|
];
transition_y3=[
0.12,0.36,0.52|
0.31,0.016,0.67|
0.33,0.17,0.5|
];
transition_y4=[
0.7,0.082,0.22|
0.59,0.3,0.11|
0.035,0.089,0.88|
];
transition_y5=[
0.66,0.12,0.22|
0.41,0.35,0.24|
0.48,0.29,0.22|
];
transition_y6=[
0.34,0.48,0.18|
0.47,0.3,0.22|
0.44,0.43,0.13|
];
transition_y7=[
0.19,0.53,0.28|
0.4,0.26,0.34|
0.087,0.094,0.82|
];
transition_y8=[
0.34,0.33,0.33|
0.24,0.31,0.45|
0.55,0.36,0.093|
];
transition_y9=[
0.29,0.44,0.27|
0.24,0.18,0.58|
0.4,0.21,0.39|
];
transition_y10=[
0.38,0.55,0.078|
0.11,0.29,0.6|
0.03,0.31,0.66|
];
transition_y11=[
0.16,0.54,0.3|
0.24,0.41,0.35|
0.27,0.56,0.18|
];
transition_y12=[
0.22,0.068,0.72|
0.22,0.49,0.29|
0.55,0.22,0.23|
];
